<instance format="XCSP3" type="COP">
  <variables>
    <array id="x" size="[30]"> 0 1 </array>
  </variables>
  <constraints>
    <sum>
      <list> x[] </list>
      <coeffs> 9 23 16 18 15 1 7 20 23 19 20 12 10 15 15 17 18 25 6 7 4 23 25 18 7 15 13 11 4 13 </coeffs>
      <condition> (le,100) </condition>
    </sum>
  </constraints>
  <objectives>
    <maximize type="sum">
      <list> x[] </list>
      <coeffs> 80 27 8 51 31 25 98 16 68 89 3 56 59 20 43 41 35 84 37 68 60 67 99 32 100 10 59 3 71 74 </coeffs>
    </maximize>
  </objectives>
</instance>
